* ENCODING=ISO-8859-1
NAME          CPLEX
ROWS
 N  obj1    
 G  c1      
 G  c2      
 G  c3      
 G  c4      
 G  c5      
 G  c6      
 G  c7      
 G  c8      
 G  c9      
 G  c10     
 G  c11     
 G  c12     
 G  c13     
 G  c14     
 G  c15     
 G  c16     
 G  c17     
 G  c18     
 G  c19     
 G  c20     
 G  c21     
 G  c22     
 G  c23     
 G  c24     
 G  c25     
 G  c26     
 G  c27     
 G  c28     
 G  c29     
 G  c30     
 G  c31     
 G  c32     
 G  c33     
 G  c34     
 G  c35     
COLUMNS
    MARK0000  'MARKER'                 'INTORG'
    x1        obj1                            1
    x1        c6                            120
    x1        c19                           105
    x1        c34                           543
    x2        obj1                            1
    x2        c20                           282
    x2        c30                           262
    x3        obj1                            1
    x3        c16                           358
    x4        obj1                            1
    x4        c2                            154
    x4        c8                            846
    x4        c22                           120
    x4        c23                           518
    x5        obj1                            1
    x5        c5                            464
    x5        c7                            418
    x5        c10                           743
    x5        c11                           108
    x5        c12                           630
    x6        obj1                            1
    x6        c17                           316
    x6        c23                           687
    x7        obj1                            1
    x7        c19                           740
    x8        obj1                            1
    x8        c8                            638
    x8        c17                           259
    x8        c32                           739
    x9        obj1                            1
    x9        c6                            546
    x9        c14                           626
    x9        c18                           706
    x9        c20                           916
    x9        c24                           700
    x9        c27                           651
    x9        c28                           323
    x9        c32                           778
    x10       obj1                            1
    x10       c1                            232
    x10       c5                            508
    x10       c13                           266
    x10       c15                           745
    x10       c22                           354
    x11       obj1                            1
    x11       c11                           828
    x11       c20                           399
    x12       obj1                            1
    x12       c9                            609
    x12       c15                           288
    x12       c16                           482
    x12       c17                           571
    x12       c27                           616
    x13       obj1                            1
    x13       c4                            190
    x14       obj1                            1
    x14       c16                           413
    x14       c29                           686
    x15       obj1                            1
    x15       c4                            269
    x15       c17                           343
    x15       c31                           123
    x16       obj1                            1
    x16       c5                            367
    x16       c18                           858
    x16       c22                           184
    x16       c27                           383
    x17       obj1                            1
    x17       c5                            454
    x17       c12                           223
    x17       c17                           196
    x17       c18                           680
    x18       obj1                            1
    x18       c1                            628
    x18       c17                           346
    x18       c18                           683
    x18       c24                           635
    x18       c27                           581
    x18       c30                           459
    x19       obj1                            1
    x19       c1                            584
    x19       c12                           971
    x19       c16                           542
    x19       c33                           929
    x20       obj1                            1
    x20       c10                           318
    x20       c11                           991
    x20       c19                           833
    x20       c20                           856
    x20       c25                           275
    x20       c26                           696
    x20       c29                           550
    x21       obj1                            1
    x21       c3                            202
    x21       c25                           255
    x21       c28                           365
    x22       obj1                            1
    x22       c5                            489
    x22       c10                           997
    x22       c19                           141
    x22       c24                           805
    x22       c25                           426
    x22       c30                           663
    x23       obj1                            1
    x23       c1                            771
    x23       c7                            225
    x23       c17                           163
    x23       c25                           923
    x23       c29                           457
    x24       obj1                            1
    x24       c14                           421
    x24       c16                           731
    x24       c21                           531
    x24       c22                           774
    x24       c26                           381
    x25       obj1                            1
    x25       c3                            685
    x25       c4                            965
    x25       c15                           330
    x25       c24                           414
    x25       c25                           977
    x25       c26                           948
    x26       obj1                            1
    x26       c5                            134
    x26       c15                           861
    x26       c25                           772
    x26       c29                           502
    x27       obj1                            1
    x27       c6                            748
    x27       c12                           983
    x27       c34                           785
    x28       obj1                            1
    x28       c2                            745
    x28       c6                            682
    x28       c16                           113
    x28       c19                           409
    x28       c28                           137
    x28       c30                           254
    x29       obj1                            1
    x29       c8                            832
    x29       c10                           743
    x29       c14                           259
    x29       c35                           766
    x30       obj1                            1
    x30       c2                            148
    x30       c26                           280
    x31       obj1                            1
    x31       c1                            856
    x31       c13                           435
    x31       c14                           211
    x31       c20                           736
    x31       c23                           210
    x32       obj1                            1
    x33       obj1                            1
    x33       c2                            763
    x33       c6                            394
    x33       c8                            202
    x33       c33                           201
    x33       c35                           628
    x34       obj1                            1
    x34       c7                            334
    x34       c22                           268
    x34       c35                           943
    x35       obj1                            1
    x35       c10                           863
    x35       c19                           286
    x35       c21                           392
    x35       c23                           912
    x35       c35                           909
    x36       obj1                            1
    x36       c10                           610
    x36       c17                           720
    x36       c34                           699
    x37       obj1                            1
    x37       c2                            133
    x37       c14                           374
    x37       c30                           114
    x38       obj1                            1
    x38       c7                            792
    x38       c8                            341
    x38       c35                           303
    x39       obj1                            1
    x39       c18                           134
    x39       c25                           909
    x39       c27                           305
    x39       c28                           924
    x40       obj1                            1
    x40       c28                           594
    x40       c31                           615
    x41       obj1                            1
    x41       c21                           329
    x42       obj1                            1
    x42       c29                           748
    x43       obj1                            1
    x43       c3                            216
    x43       c8                            758
    x43       c15                           106
    x43       c20                           290
    x43       c25                           714
    x43       c27                           223
    x43       c31                           562
    x43       c34                           352
    x44       obj1                            1
    x44       c2                            350
    x44       c3                            865
    x44       c14                           344
    x44       c34                           788
    x45       obj1                            1
    x45       c6                            679
    x45       c16                           973
    x45       c20                           327
    x46       obj1                            1
    x46       c9                            779
    x46       c28                           594
    x46       c33                           146
    x46       c34                           124
    x47       obj1                            1
    x47       c21                           578
    x48       obj1                            1
    x48       c1                            772
    x48       c21                           636
    x48       c29                           572
    x49       obj1                            1
    x49       c6                            125
    x49       c29                           382
    x50       obj1                            1
    x50       c1                            399
    x50       c12                           605
    x50       c24                           356
    x50       c35                           839
    x51       obj1                            1
    x51       c7                            988
    x51       c8                            212
    x51       c27                           837
    x51       c32                           384
    x52       obj1                            1
    x52       c5                            729
    x52       c6                            708
    x52       c8                            456
    x52       c13                           113
    x52       c16                           393
    x52       c19                           563
    x52       c22                           319
    x52       c23                           310
    x53       obj1                            1
    x53       c12                           352
    x53       c17                           800
    x53       c18                           740
    x53       c31                           939
    x54       obj1                            1
    x54       c4                            291
    x54       c15                           648
    x54       c21                           732
    x54       c30                           677
    x55       obj1                            1
    x55       c1                            260
    x55       c7                            972
    x55       c10                           453
    x55       c13                           716
    x55       c14                           246
    x55       c20                           278
    x56       obj1                            1
    x56       c14                           905
    x56       c23                           221
    x56       c35                           886
    x57       obj1                            1
    x57       c4                            481
    x57       c29                           119
    x57       c34                           485
    x58       obj1                            1
    x58       c10                           573
    x58       c20                           375
    x58       c23                           392
    x59       obj1                            1
    x59       c16                           765
    x59       c32                           723
    x60       obj1                            1
    x60       c9                            475
    x60       c14                           561
    x60       c18                           596
    x60       c27                           871
    x61       obj1                            1
    x61       c14                           220
    x61       c19                           860
    x61       c22                           518
    x61       c26                           157
    x62       obj1                            1
    x62       c1                            247
    x62       c7                            572
    x62       c21                           121
    x62       c29                           854
    x62       c30                           871
    x62       c34                           443
    x63       obj1                            1
    x63       c7                            827
    x63       c23                           209
    x64       obj1                            1
    x64       c1                            591
    x64       c9                            951
    x64       c29                           130
    x64       c34                           705
    x65       obj1                            1
    x65       c8                            983
    x65       c27                           504
    x65       c30                           188
    x66       obj1                            1
    x66       c10                           790
    x66       c19                           316
    x66       c33                           906
    x67       obj1                            1
    x67       c31                           694
    x68       obj1                            1
    x68       c10                           789
    x68       c17                           418
    x69       obj1                            1
    x69       c11                           470
    x69       c26                           489
    x70       obj1                            1
    x70       c3                            623
    x70       c4                            303
    x70       c5                            846
    x70       c7                            926
    x70       c9                            722
    x70       c22                           421
    MARK0001  'MARKER'                 'INTEND'
RHS
    rhs       c1                           2670
    rhs       c2                           1147
    rhs       c3                           1296
    rhs       c4                           1250
    rhs       c5                           1996
    rhs       c6                           2001
    rhs       c7                           3027
    rhs       c8                           2634
    rhs       c9                           1768
    rhs       c10                          3440
    rhs       c11                          1199
    rhs       c12                          1882
    rhs       c13                           765
    rhs       c14                          2084
    rhs       c15                          1489
    rhs       c16                          2385
    rhs       c17                          2066
    rhs       c18                          2199
    rhs       c19                          2127
    rhs       c20                          2230
    rhs       c21                          1660
    rhs       c22                          1479
    rhs       c23                          1730
    rhs       c24                          1455
    rhs       c25                          2626
    rhs       c26                          1476
    rhs       c27                          2486
    rhs       c28                          1469
    rhs       c29                          2500
    rhs       c30                          1744
    rhs       c31                          1467
    rhs       c32                          1312
    rhs       c33                          1091
    rhs       c34                          2462
    rhs       c35                          2637
BOUNDS
 LI bnd       x1        0
 LI bnd       x2        0
 LI bnd       x3        0
 LI bnd       x4        0
 LI bnd       x5        0
 LI bnd       x6        0
 LI bnd       x7        0
 LI bnd       x8        0
 LI bnd       x9        0
 LI bnd       x10       0
 LI bnd       x11       0
 LI bnd       x12       0
 LI bnd       x13       0
 LI bnd       x14       0
 LI bnd       x15       0
 LI bnd       x16       0
 LI bnd       x17       0
 LI bnd       x18       0
 LI bnd       x19       0
 LI bnd       x20       0
 LI bnd       x21       0
 LI bnd       x22       0
 LI bnd       x23       0
 LI bnd       x24       0
 LI bnd       x25       0
 LI bnd       x26       0
 LI bnd       x27       0
 LI bnd       x28       0
 LI bnd       x29       0
 LI bnd       x30       0
 LI bnd       x31       0
 LI bnd       x32       0
 LI bnd       x33       0
 LI bnd       x34       0
 LI bnd       x35       0
 LI bnd       x36       0
 LI bnd       x37       0
 LI bnd       x38       0
 LI bnd       x39       0
 LI bnd       x40       0
 LI bnd       x41       0
 LI bnd       x42       0
 LI bnd       x43       0
 LI bnd       x44       0
 LI bnd       x45       0
 LI bnd       x46       0
 LI bnd       x47       0
 LI bnd       x48       0
 LI bnd       x49       0
 LI bnd       x50       0
 LI bnd       x51       0
 LI bnd       x52       0
 LI bnd       x53       0
 LI bnd       x54       0
 LI bnd       x55       0
 LI bnd       x56       0
 LI bnd       x57       0
 LI bnd       x58       0
 LI bnd       x59       0
 LI bnd       x60       0
 LI bnd       x61       0
 LI bnd       x62       0
 LI bnd       x63       0
 LI bnd       x64       0
 LI bnd       x65       0
 LI bnd       x66       0
 LI bnd       x67       0
 LI bnd       x68       0
 LI bnd       x69       0
 LI bnd       x70       0
ENDATA
